************************************************************************
file with basedata            : cm213_.bas
initial value random generator: 2094223952
************************************************************************
projects                      :  1
jobs (incl. supersource/sink ):  18
horizon                       :  115
RESOURCES
  - renewable                 :  2   R
  - nonrenewable              :  2   N
  - doubly constrained        :  0   D
************************************************************************
PROJECT INFORMATION:
pronr.  #jobs rel.date duedate tardcost  MPM-Time
    1     16      0       20       15       20
************************************************************************
PRECEDENCE RELATIONS:
jobnr.    #modes  #successors   successors
   1        1          3           2   3   4
   2        2          3          10  11  15
   3        2          3           5   8   9
   4        2          3           6  12  13
   5        2          2          12  14
   6        2          2           7  15
   7        2          1          17
   8        2          2          10  13
   9        2          3          10  11  15
  10        2          2          16  17
  11        2          2          12  13
  12        2          1          16
  13        2          1          14
  14        2          2          16  17
  15        2          1          18
  16        2          1          18
  17        2          1          18
  18        1          0        
************************************************************************
REQUESTS/DURATIONS:
jobnr. mode duration  R 1  R 2  N 1  N 2
------------------------------------------------------------------------
  1      1     0       0    0    0    0
  2      1     3       9    3    0    5
         2     7       8    3    0    5
  3      1     4       6    6    0    6
         2     5       5    4    0    5
  4      1     7       5    3    0    6
         2    10       4    2    0    2
  5      1     6       8    8    8    0
         2    10       6    4    5    0
  6      1     4       8    5    4    0
         2     9       6    4    2    0
  7      1     1       9    7    0    8
         2     7       7    6    0    4
  8      1     1       7    8    0    6
         2    10       6    7    0    6
  9      1     2       6   10    0    6
         2     9       6    8    0    2
 10      1     7       7   10    4    0
         2     9       1    8    0    4
 11      1     3       6    9    0    6
         2     4       1    7    0    5
 12      1     2       5   10    0   10
         2     3       3    7    0   10
 13      1     3       8    9    9    0
         2     5       7    5    0    5
 14      1     1       8    7    0    9
         2     5       8    7    0    8
 15      1     2       3    7    0    6
         2     6       3    6    0    2
 16      1     7       9    4    7    0
         2    10       3    3    4    0
 17      1     2       3    5    0   10
         2     6       3    5    3    0
 18      1     0       0    0    0    0
************************************************************************
RESOURCEAVAILABILITIES:
  R 1  R 2  N 1  N 2
   14   17   23   68
************************************************************************
